371 5
10 10 10 10 10 

0 0 0 0 0 0 5 2 34 46 78 110 
0 0 0 0 0 0 6 3 4 5 6 7 18 
1 1 1 1 0 0 4 20 10 9 8 
1 2 2 1 0 0 5 20 16 14 9 8 
10 2 3 3 0 0 3 14 9 8 
3 2 2 3 0 0 3 19 10 8 
4 3 2 6 0 0 4 22 19 15 10 
4 4 1 1 0 0 3 15 12 11 
4 2 1 1 0 0 2 19 13 
8 3 1 4 0 0 2 16 14 
10 1 2 1 0 0 2 23 17 
1 4 2 2 0 0 2 23 17 
4 1 1 3 0 0 2 23 17 
3 1 2 2 0 0 1 17 
4 3 4 2 0 0 1 17 
3 2 2 2 0 0 1 17 
2 1 2 4 0 0 6 32 31 30 27 26 21 
6 2 3 3 0 0 5 31 30 27 26 21 
10 3 3 3 0 0 2 30 21 
2 3 1 3 0 0 5 31 30 29 26 254 
4 4 3 4 0 0 2 28 24 
3 3 3 2 0 0 1 23 
1 4 3 2 0 0 3 32 30 28 
8 2 4 2 0 0 1 25 
2 4 5 2 0 0 1 29 
2 2 3 2 0 0 1 28 
3 1 3 2 0 0 1 28 
6 3 3 2 0 0 1 33 
6 2 2 2 0 0 1 33 
6 3 4 3 0 0 1 33 
9 3 4 3 0 0 1 33 
5 4 3 4 0 0 1 33 
0 0 0 0 0 0 1 268 
0 0 0 0 0 0 5 35 36 37 39 44 
4 1 0 0 0 0 3 43 42 40 
2 5 0 0 0 0 4 42 41 40 309 
7 2 0 0 0 0 1 38 
3 3 0 0 0 0 1 41 
10 2 0 0 0 0 1 40 
1 5 0 0 0 0 1 45 
2 2 0 0 0 0 1 45 
1 3 0 0 0 0 1 45 
10 1 0 0 0 0 1 45 
1 1 0 0 0 0 1 45 
0 0 0 0 0 0 4 142 164 186 208 
0 0 0 0 0 0 7 47 49 52 54 56 75 76 
6 1 0 1 0 1 4 68 60 50 48 
9 3 0 3 0 3 4 67 61 51 82 
1 3 0 3 0 3 5 74 73 69 63 53 
4 3 0 3 0 2 4 71 70 63 53 
6 1 0 5 0 2 2 63 53 
6 2 0 1 0 2 5 69 68 64 63 57 
9 2 0 2 0 3 3 64 59 55 
2 3 0 4 0 3 5 72 69 66 63 60 
8 2 0 1 0 3 1 57 
4 2 0 2 0 1 2 70 68 
7 1 0 3 0 1 1 58 
8 2 0 3 0 2 1 62 
8 2 0 1 0 5 1 65 
8 1 0 4 0 4 1 67 
8 2 0 3 0 3 1 66 
1 4 0 4 0 3 1 77 
2 3 0 2 0 2 1 77 
8 3 0 1 0 4 1 77 
5 3 0 4 0 3 1 77 
4 1 0 1 0 3 1 77 
9 2 0 2 0 2 1 77 
7 4 0 7 0 2 1 77 
6 4 0 2 0 1 1 77 
3 4 0 1 0 3 1 77 
2 2 0 4 0 1 1 77 
3 2 0 3 0 2 1 77 
7 1 0 2 0 4 1 77 
2 2 0 1 0 3 1 77 
4 5 0 1 0 3 1 77 
9 5 0 1 0 1 1 77 
0 0 0 0 0 0 1 268 
0 0 0 0 0 0 6 79 80 81 82 84 108 
7 0 1 1 1 0 4 92 86 85 83 
4 0 1 1 3 0 5 107 98 90 87 86 
8 0 1 6 3 0 5 98 97 92 90 87 
2 0 2 1 2 0 5 105 101 97 90 87 
5 0 1 4 2 0 4 101 98 97 87 
6 0 2 1 3 0 5 106 102 93 92 89 
2 0 3 3 3 0 3 102 89 88 
3 0 1 5 1 0 5 102 101 97 96 93 
5 0 4 1 2 0 2 102 88 
10 0 4 2 3 0 3 104 96 93 
8 0 3 6 5 0 3 101 96 94 
9 0 2 2 2 0 2 103 91 
5 0 1 4 3 0 1 93 
1 0 3 2 4 0 2 101 95 
3 0 4 1 1 0 1 94 
8 0 3 2 2 0 2 95 366 
6 0 3 2 2 0 1 99 
6 0 1 2 3 0 1 100 
8 0 1 2 4 0 1 103 
10 0 4 5 2 0 1 103 
6 0 4 1 3 0 1 109 
7 0 1 4 2 0 1 109 
10 0 3 3 4 0 1 109 
4 0 3 3 2 0 1 109 
4 0 3 2 1 0 1 109 
1 0 4 2 2 0 1 109 
1 0 3 1 2 0 1 109 
8 0 4 1 4 0 1 109 
1 0 2 3 2 0 1 109 
7 0 3 2 2 0 1 109 
0 0 0 0 0 0 1 268 
0 0 0 0 0 0 6 111 112 113 114 116 140 
1 0 0 1 1 1 4 139 121 118 115 
8 0 0 2 1 1 4 123 122 121 115 
9 0 0 2 4 2 4 123 118 117 115 
1 0 0 2 2 1 3 125 121 115 
10 0 0 4 4 3 3 131 127 119 
2 0 0 3 1 2 4 138 137 123 122 
8 0 0 3 2 4 3 136 122 120 
3 0 0 5 4 4 6 137 135 134 131 130 126 
3 0 0 3 1 5 1 120 
9 0 0 1 3 4 5 137 135 134 130 126 
3 0 0 2 2 6 2 131 124 
10 0 0 2 1 5 3 135 130 128 
6 0 0 4 1 3 3 135 134 126 
2 0 0 1 4 3 1 126 
9 0 0 2 2 2 2 134 129 
1 0 0 3 4 2 1 128 
3 0 0 4 2 1 2 136 133 
3 0 0 1 4 2 1 129 
1 0 0 4 1 2 1 132 
7 0 0 3 1 1 1 133 
10 0 0 2 1 1 2 136 228 
4 0 0 4 3 2 1 141 
5 0 0 1 7 2 1 141 
5 0 0 2 3 2 1 141 
5 0 0 4 3 3 1 141 
3 0 0 2 2 2 1 141 
2 0 0 2 2 2 1 141 
4 0 0 2 4 4 1 141 
8 0 0 2 2 2 1 141 
9 0 0 2 3 1 1 141 
0 0 0 0 0 0 1 268 
0 0 0 0 0 0 6 143 144 145 146 147 148 
5 0 1 0 0 1 5 157 155 151 150 149 
3 0 2 0 0 2 5 161 155 153 152 151 
4 0 2 0 0 3 4 162 155 150 149 
9 0 2 0 0 4 4 162 155 153 149 
2 0 3 0 0 1 5 162 161 160 153 152 
6 0 4 0 0 3 3 162 155 149 
6 0 2 0 0 3 4 161 160 156 154 
7 0 4 0 0 3 3 161 160 153 
7 0 2 0 0 4 4 162 160 159 156 
8 0 1 0 0 3 2 156 154 
8 0 4 0 0 2 2 159 156 
2 0 2 0 0 2 2 159 158 
9 0 4 0 0 2 2 159 158 
2 0 2 0 0 2 1 158 
6 0 2 0 0 5 2 158 261 
1 0 4 0 0 2 1 163 
3 0 4 0 0 3 1 163 
4 0 2 0 0 2 1 163 
6 0 1 0 0 1 1 163 
6 0 2 0 0 2 1 163 
0 0 0 0 0 0 1 268 
0 0 0 0 0 0 6 165 167 168 169 172 173 
2 1 0 0 1 0 2 174 166 
3 3 0 0 2 0 4 184 177 175 170 
4 6 0 0 3 0 3 183 177 171 
7 2 0 0 5 0 3 176 175 174 
4 3 0 0 2 0 2 174 170 
2 2 0 0 1 0 4 182 181 179 176 
7 1 0 0 3 0 4 184 181 180 175 
6 3 0 0 3 0 4 181 180 177 175 
4 1 0 0 3 0 4 184 180 178 177 
1 3 0 0 2 0 3 181 178 177 
9 1 0 0 3 0 3 182 179 178 
3 4 0 0 1 0 3 183 180 178 
10 1 0 0 3 0 1 179 
8 4 0 0 3 0 1 185 
1 3 0 0 1 0 2 185 294 
5 4 0 0 6 0 1 185 
2 3 0 0 2 0 1 185 
1 2 0 0 3 0 1 185 
4 2 0 0 1 0 1 185 
10 1 0 0 2 0 1 185 
0 0 0 0 0 0 1 268 
0 0 0 0 0 0 9 187 188 190 191 192 195 204 205 206 
7 0 1 0 0 1 3 203 200 189 
1 0 2 0 0 2 5 202 200 199 198 196 
2 0 3 0 0 2 2 197 193 
9 0 2 0 0 4 2 201 197 
1 0 1 0 0 3 2 199 196 
8 0 2 0 0 2 2 197 196 
8 0 4 0 0 4 1 194 
3 0 2 0 0 2 1 196 
2 0 2 0 0 2 1 198 
7 0 7 0 0 3 1 207 
9 0 2 0 0 4 1 207 
6 0 2 0 0 3 1 207 
5 0 2 0 0 2 1 207 
9 0 2 0 0 2 1 207 
2 0 1 0 0 2 2 207 352 
7 0 1 0 0 3 1 207 
6 0 4 0 0 2 1 207 
10 0 3 0 0 1 1 207 
9 0 5 0 0 1 1 207 
1 0 2 0 0 5 1 207 
0 0 0 0 0 0 1 268 
0 0 0 0 0 0 5 209 210 211 212 214 
9 0 1 0 0 0 4 218 216 215 213 
8 0 3 0 0 0 3 217 216 215 
2 0 3 0 0 0 2 216 215 
7 0 4 0 0 0 2 216 215 
3 0 2 0 0 0 1 217 
4 0 2 0 0 0 1 215 
9 0 3 0 0 0 1 219 
7 0 2 0 0 0 1 219 
6 0 3 0 0 0 2 219 315 
4 0 2 0 0 0 1 219 
0 0 0 0 0 0 4 220 232 244 256 
0 0 0 0 0 0 6 221 222 223 224 225 227 
4 0 0 0 0 1 3 230 229 226 
8 0 0 0 0 3 3 230 229 226 
7 0 0 0 0 3 2 230 226 
1 0 0 0 0 1 2 230 226 
2 0 0 0 0 3 2 229 228 
7 0 0 0 0 2 1 228 
1 0 0 0 0 1 2 229 266 
5 0 0 0 0 4 1 231 
8 0 0 0 0 5 1 231 
9 0 0 0 0 2 1 231 
0 0 0 0 0 0 1 268 
0 0 0 0 0 0 5 233 234 235 236 237 
8 0 0 1 0 0 3 242 239 238 
10 0 0 5 0 0 3 242 239 238 
6 0 0 2 0 0 2 242 240 
3 0 0 1 0 0 2 241 240 
6 0 0 3 0 0 2 241 240 
2 0 0 2 0 0 1 241 
7 0 0 3 0 0 1 240 
7 0 0 3 0 0 1 243 
10 0 0 3 0 0 2 243 306 
7 0 0 2 0 0 1 243 
0 0 0 0 0 0 1 268 
0 0 0 0 0 0 3 245 246 247 
5 1 0 0 0 0 5 252 251 250 249 248 
9 3 0 0 0 0 5 252 251 250 249 248 
4 2 0 0 0 0 5 252 251 250 249 248 
5 2 0 0 0 0 2 254 253 
1 3 0 0 0 0 3 254 253 307 
8 4 0 0 0 0 2 254 253 
7 2 0 0 0 0 2 254 253 
7 3 0 0 0 0 2 254 253 
8 2 0 0 0 0 1 255 
9 3 0 0 0 0 1 255 
0 0 0 0 0 0 1 268 
0 0 0 0 0 0 4 257 258 262 263 
5 1 0 0 0 0 3 266 264 260 
10 1 0 0 0 0 2 261 259 
5 3 0 0 0 0 2 265 264 
9 2 0 0 0 0 1 265 
5 4 0 0 0 0 1 264 
1 4 0 0 0 0 1 264 
5 4 0 0 0 0 1 264 
6 2 0 0 0 0 1 267 
3 2 0 0 0 0 2 267 298 
2 2 0 0 0 0 1 267 
0 0 0 0 0 0 1 268 
0 0 0 0 0 0 4 269 291 313 335 
0 0 0 0 0 0 8 270 273 276 277 286 287 288 289 
7 1 0 0 0 1 2 285 271 
6 3 0 0 0 2 3 284 283 272 
4 5 0 0 0 3 3 280 278 274 
10 3 0 0 0 2 2 278 275 
6 4 0 0 0 4 1 279 
5 3 0 0 0 5 1 282 
8 1 0 0 0 2 1 281 
10 1 0 0 0 2 1 281 
5 2 0 0 0 2 1 290 
3 2 0 0 0 2 1 290 
7 1 0 0 0 3 1 290 
9 3 0 0 0 2 2 290 339 
10 3 0 0 0 2 1 290 
9 2 0 0 0 2 1 290 
6 1 0 0 0 1 1 290 
1 3 0 0 0 2 1 290 
1 3 0 0 0 3 1 290 
9 1 0 0 0 2 1 290 
7 4 0 0 0 7 1 290 
4 4 0 0 0 1 1 290 
0 0 0 0 0 0 1 371 
0 0 0 0 0 0 6 292 293 294 295 296 297 
1 0 0 0 1 1 7 311 309 308 307 304 302 300 
8 0 0 0 2 2 6 310 309 308 307 304 301 
10 0 0 0 3 2 4 310 308 307 298 
10 0 0 0 4 3 4 310 307 304 300 
4 0 0 0 1 2 3 308 307 299 
1 0 0 0 3 5 5 310 309 308 307 304 
9 0 0 0 3 4 4 309 306 304 303 
5 0 0 0 3 1 3 306 304 303 
6 0 0 0 4 4 1 301 
1 0 0 0 4 2 2 306 303 
1 0 0 0 1 4 2 306 303 
10 0 0 0 2 3 1 305 
6 0 0 0 2 2 1 305 
7 0 0 0 2 2 1 312 
5 0 0 0 4 4 1 312 
1 0 0 0 1 1 1 312 
1 0 0 0 3 2 2 312 342 
5 0 0 0 1 3 1 312 
6 0 0 0 5 2 1 312 
3 0 0 0 1 1 1 312 
0 0 0 0 0 0 1 371 
0 0 0 0 0 0 6 314 317 320 322 332 333 
1 0 0 1 0 1 2 331 315 
2 0 0 2 0 4 5 330 329 324 321 316 
1 0 0 2 0 5 3 328 323 318 
8 0 0 1 0 2 2 327 319 
1 0 0 2 0 2 3 326 325 364 
3 0 0 4 0 2 2 324 323 
1 0 0 1 0 5 2 327 323 
3 0 0 5 0 1 1 323 
3 0 0 5 0 1 1 327 
7 0 0 3 0 3 1 334 
6 0 0 1 0 6 1 334 
5 0 0 3 0 2 1 334 
6 0 0 1 0 2 1 334 
5 0 0 2 0 3 1 334 
5 0 0 2 0 3 1 334 
10 0 0 6 0 3 1 334 
8 0 0 3 0 1 1 334 
6 0 0 2 0 2 1 334 
8 0 0 3 0 1 1 334 
8 0 0 1 0 1 1 334 
0 0 0 0 0 0 1 371 
0 0 0 0 0 0 5 336 337 338 341 342 
10 0 0 0 0 1 2 345 339 
6 0 0 0 0 5 2 340 339 
6 0 0 0 0 3 2 340 339 
3 0 0 0 0 3 2 343 351 
6 0 0 0 0 2 1 343 
6 0 0 0 0 2 1 344 
4 0 0 0 0 3 1 343 
4 0 0 0 0 1 1 346 
2 0 0 0 0 3 1 346 
10 0 0 0 0 2 1 346 
0 0 0 0 0 0 2 347 359 
0 0 0 0 0 0 6 348 351 352 353 354 355 
7 0 1 0 0 0 2 350 349 
1 0 4 0 0 0 2 357 356 
4 0 1 0 0 0 2 357 356 
7 0 3 0 0 0 2 357 356 
1 0 2 0 0 0 1 357 
9 0 5 0 0 0 2 356 364 
4 0 2 0 0 0 1 356 
6 0 4 0 0 0 1 356 
8 0 2 0 0 0 1 358 
8 0 1 0 0 0 1 358 
0 0 0 0 0 0 1 371 
0 0 0 0 0 0 4 360 361 362 363 
7 1 0 0 0 0 3 366 365 364 
7 3 0 0 0 0 3 366 365 364 
3 3 0 0 0 0 3 366 365 364 
7 4 0 0 0 0 2 366 365 
1 5 0 0 0 0 3 369 368 367 
10 2 0 0 0 0 2 369 367 
6 1 0 0 0 0 2 368 367 
6 1 0 0 0 0 1 370 
5 3 0 0 0 0 1 370 
9 2 0 0 0 0 1 370 
0 0 0 0 0 0 1 371 
0 0 0 0 0 0 0 
